Route #1: 22 17 26 46 13 9 16
Route #2: 2 48 38 34 32 19 15 49 50 12 45 4
Route #3: 23 39 14 21 11 28 24 31 3
Route #4: 51 5 8 27 29 10 44
Route #5: 37 47 6 36 25 41
Route #6: 1 30 18 20 42 40
Route #7: 35 33 7 43
Cost 756